(set-info :source |printed by MathSAT|)
(declare-fun |!{$(in_main#0)<a.1>}| () (Array Int Int))
(declare-fun |!{$(in_main#0)<a.1>}.next| () (Array Int Int))
(declare-fun |!{$(in_main#0)<SIZE>}| () Int)
(declare-fun |!{$(in_main#0)<SIZE>}.next| () Int)
(declare-fun |!{$(in_main#0)<i>}| () Int)
(declare-fun |!{$(in_main#0)<i>}.next| () Int)
(declare-fun |!{$(in_main#0)<j>}| () Int)
(declare-fun |!{$(in_main#0)<j>}.next| () Int)
(declare-fun |!{$(in_main#0)<z>}| () Int)
(declare-fun |!{$(in_main#0)<z>}.next| () Int)
(declare-fun |!{$(in_main#0)<$(in___VERIFIER_nondet_int#0)<h#<__VERIFIER_nondet_int.return>>>}| () Int)
(declare-fun |!{$(in_main#0)<$(in___VERIFIER_nondet_int#2)<h#<__VERIFIER_nondet_int.return>>>}| () Int)
(declare-fun !pc () Int)
(declare-fun !pc.next () Int)
(declare-fun |%{$(in_main#0)<j>}#1| () Int)
(declare-fun |%{$(in_main#0)<z>}#1| () Int)
(declare-fun |%{$(in_main#0)<a.1>}#1| () (Array Int Int))
(declare-fun |%{$(in_main#0)<a.1>}#2| () (Array Int Int))
(define-fun .def_33 () Int (! !pc :next !pc.next))
(define-fun .def_36 () Bool (! (= .def_33 2) :init true))
(define-fun .def_170 () Bool (= .def_33 38))
(define-fun .def_130 () Bool (= !pc.next 74))
(define-fun .def_173 () Bool (and .def_130 .def_170))
(define-fun .def_166 () Bool (= |!{$(in_main#0)<z>}.next| |!{$(in_main#0)<$(in___VERIFIER_nondet_int#2)<h#<__VERIFIER_nondet_int.return>>>}|))
(define-fun .def_164 () Bool (= |!{$(in_main#0)<j>}.next| 0))
(define-fun .def_10 () Int (! |!{$(in_main#0)<SIZE>}| :next |!{$(in_main#0)<SIZE>}.next|))
(define-fun .def_99 () Bool (= .def_10 |!{$(in_main#0)<SIZE>}.next|))
(define-fun .def_8 () (Array Int Int) (! |!{$(in_main#0)<a.1>}| :next |!{$(in_main#0)<a.1>}.next|))
(define-fun .def_97 () Bool (= .def_8 |!{$(in_main#0)<a.1>}.next|))
(define-fun .def_162 () Bool (and .def_97 .def_99))
(define-fun .def_12 () Int (! |!{$(in_main#0)<i>}| :next |!{$(in_main#0)<i>}.next|))
(define-fun .def_101 () Bool (= .def_12 |!{$(in_main#0)<i>}.next|))
(define-fun .def_163 () Bool (and .def_101 .def_162))
(define-fun .def_165 () Bool (and .def_163 .def_164))
(define-fun .def_167 () Bool (and .def_165 .def_166))
(define-fun .def_146 () Bool (<= .def_10 |!{$(in_main#0)<$(in___VERIFIER_nondet_int#2)<h#<__VERIFIER_nondet_int.return>>>}|))
(define-fun .def_147 () Bool (not .def_146))
(define-fun .def_145 () Bool (<= 0 |!{$(in_main#0)<$(in___VERIFIER_nondet_int#2)<h#<__VERIFIER_nondet_int.return>>>}|))
(define-fun .def_148 () Bool (and .def_145 .def_147))
(define-fun .def_149 () Int (ite .def_148 1 0))
(define-fun .def_150 () Bool (= .def_149 0))
(define-fun .def_151 () Bool (not .def_150))
(define-fun .def_168 () Bool (and .def_151 .def_167))
(define-fun .def_141 () Bool (<= .def_10 .def_12))
(define-fun .def_169 () Bool (and .def_141 .def_168))
(define-fun .def_174 () Bool (and .def_169 .def_173))
(define-fun .def_64 () Bool (= !pc.next 38))
(define-fun .def_171 () Bool (and .def_64 .def_170))
(define-fun .def_155 () Int (* (- 1) |!{$(in_main#0)<i>}.next|))
(define-fun .def_156 () Int (+ .def_12 .def_155))
(define-fun .def_157 () Bool (= .def_156 (- 1)))
(define-fun .def_143 () (Array Int Int) (store .def_8 .def_12 10))
(define-fun .def_153 () Bool (= |!{$(in_main#0)<a.1>}.next| .def_143))
(define-fun .def_154 () Bool (and .def_99 .def_153))
(define-fun .def_158 () Bool (and .def_154 .def_157))
(define-fun .def_14 () Int (! |!{$(in_main#0)<j>}| :next |!{$(in_main#0)<j>}.next|))
(define-fun .def_103 () Bool (= .def_14 |!{$(in_main#0)<j>}.next|))
(define-fun .def_159 () Bool (and .def_103 .def_158))
(define-fun .def_16 () Int (! |!{$(in_main#0)<z>}| :next |!{$(in_main#0)<z>}.next|))
(define-fun .def_105 () Bool (= .def_16 |!{$(in_main#0)<z>}.next|))
(define-fun .def_160 () Bool (and .def_105 .def_159))
(define-fun .def_142 () Bool (not .def_141))
(define-fun .def_161 () Bool (and .def_142 .def_160))
(define-fun .def_172 () Bool (and .def_161 .def_171))
(define-fun .def_175 () Bool (or .def_172 .def_174))
(define-fun .def_134 () Bool (= !pc.next 0))
(define-fun .def_125 () Bool (= .def_33 74))
(define-fun .def_135 () Bool (and .def_125 .def_134))
(define-fun .def_67 () Bool (<= .def_10 .def_14))
(define-fun .def_119 () Bool (and .def_67 .def_97))
(define-fun .def_120 () Bool (and .def_99 .def_119))
(define-fun .def_121 () Bool (and .def_101 .def_120))
(define-fun .def_122 () Bool (and .def_103 .def_121))
(define-fun .def_123 () Bool (and .def_105 .def_122))
(define-fun .def_136 () Bool (and .def_123 .def_135))
(define-fun .def_131 () Bool (and .def_125 .def_130))
(define-fun .def_111 () Int (* (- 1) |!{$(in_main#0)<j>}.next|))
(define-fun .def_112 () Int (+ .def_14 .def_111))
(define-fun .def_113 () Bool (= .def_112 (- 1)))
(define-fun .def_108 () Bool (= |!{$(in_main#0)<a.1>}.next| |%{$(in_main#0)<a.1>}#2|))
(define-fun .def_109 () Bool (and .def_99 .def_108))
(define-fun .def_110 () Bool (and .def_101 .def_109))
(define-fun .def_114 () Bool (and .def_110 .def_113))
(define-fun .def_115 () Bool (and .def_105 .def_114))
(define-fun .def_76 () Int (+ .def_14 1))
(define-fun .def_83 () (Array Int Int) (store .def_8 .def_76 20))
(define-fun .def_91 () Bool (= .def_83 |%{$(in_main#0)<a.1>}#2|))
(define-fun .def_78 () Int (* (- 1) .def_16))
(define-fun .def_79 () Int (+ .def_14 .def_78))
(define-fun .def_80 () Bool (= .def_79 (- 1)))
(define-fun .def_81 () Bool (not .def_80))
(define-fun .def_93 () Bool (and .def_81 .def_91))
(define-fun .def_90 () Bool (= .def_8 |%{$(in_main#0)<a.1>}#2|))
(define-fun .def_92 () Bool (and .def_80 .def_90))
(define-fun .def_94 () Bool (or .def_92 .def_93))
(define-fun .def_116 () Bool (and .def_94 .def_115))
(define-fun .def_69 () Int (select .def_8 .def_14))
(define-fun .def_71 () Bool (= .def_69 10))
(define-fun .def_72 () Int (ite .def_71 1 0))
(define-fun .def_73 () Bool (= .def_72 0))
(define-fun .def_74 () Bool (not .def_73))
(define-fun .def_117 () Bool (and .def_74 .def_116))
(define-fun .def_68 () Bool (not .def_67))
(define-fun .def_118 () Bool (and .def_68 .def_117))
(define-fun .def_132 () Bool (and .def_118 .def_131))
(define-fun .def_127 () Bool (= !pc.next 94))
(define-fun .def_128 () Bool (and .def_125 .def_127))
(define-fun .def_98 () Bool (and .def_73 .def_97))
(define-fun .def_100 () Bool (and .def_98 .def_99))
(define-fun .def_102 () Bool (and .def_100 .def_101))
(define-fun .def_104 () Bool (and .def_102 .def_103))
(define-fun .def_106 () Bool (and .def_104 .def_105))
(define-fun .def_107 () Bool (and .def_68 .def_106))
(define-fun .def_129 () Bool (and .def_107 .def_128))
(define-fun .def_133 () Bool (or .def_129 .def_132))
(define-fun .def_137 () Bool (or .def_133 .def_136))
(define-fun .def_65 () Bool (and .def_36 .def_64))
(define-fun .def_60 () Bool (= |!{$(in_main#0)<z>}.next| |%{$(in_main#0)<z>}#1|))
(define-fun .def_58 () Bool (= |!{$(in_main#0)<j>}.next| |%{$(in_main#0)<j>}#1|))
(define-fun .def_56 () Bool (= |!{$(in_main#0)<i>}.next| 0))
(define-fun .def_54 () Bool (= |!{$(in_main#0)<SIZE>}.next| |!{$(in_main#0)<$(in___VERIFIER_nondet_int#0)<h#<__VERIFIER_nondet_int.return>>>}|))
(define-fun .def_53 () Bool (= |!{$(in_main#0)<a.1>}.next| |%{$(in_main#0)<a.1>}#1|))
(define-fun .def_55 () Bool (and .def_53 .def_54))
(define-fun .def_57 () Bool (and .def_55 .def_56))
(define-fun .def_59 () Bool (and .def_57 .def_58))
(define-fun .def_61 () Bool (and .def_59 .def_60))
(define-fun .def_48 () Bool (<= |!{$(in_main#0)<$(in___VERIFIER_nondet_int#0)<h#<__VERIFIER_nondet_int.return>>>}| 0))
(define-fun .def_49 () Bool (not .def_48))
(define-fun .def_50 () Int (ite .def_49 1 0))
(define-fun .def_51 () Bool (= .def_50 0))
(define-fun .def_52 () Bool (not .def_51))
(define-fun .def_62 () Bool (and .def_52 .def_61))
(define-fun .def_66 () Bool (and .def_62 .def_65))
(define-fun .def_138 () Bool (or .def_66 .def_137))
(define-fun .def_176 () Bool (! (or .def_138 .def_175) :trans true))
(define-fun .def_139 () Bool (= .def_33 94))
(define-fun .def_177 () Bool (! (not .def_139) :invar-property 0 :invar-property-name ||))
(assert true)
